p tdp 20 40
1 2
1 7
1 12
1 20
2 5
2 10
2 15
3 4
3 5
3 13
3 19
4 11
4 14
4 18
5 12
5 18
6 8
6 11
6 14
6 16
7 9
7 17
7 19
8 10
8 13
8 17
9 11
9 14
9 20
10 12
10 16
11 15
12 15
13 16
13 18
14 15
16 17
17 20
18 19
19 20
